WARNING: for repeatability, setting FPU to use double precision
============================[ Problem Statistics ]=============================
|                                                                             |
|  Number of variables:           100                                         |
|  Number of clauses:             449                                         |
|  Parse time:                   0.00 s                                       |
|  Eliminated clauses:           0.00 Mb                                      |
|  Simplification time:          0.00 s                                       |
|                                                                             |
============================[ Search Statistics ]==============================
| Conflicts |          ORIGINAL         |          LEARNT          | Progress |
|           |    Vars  Clauses Literals |    Limit  Clauses Lit/Cl |          |
===============================================================================
|       100 |      96      446     1360 |      163      100      7 |  0.010 % |
|       250 |      96      446     1360 |      179      163      6 |  0.010 % |
===============================================================================
restarts              : 3
conflicts             : 259            (100778 /sec)
decisions             : 319            (0.00 % random) (124125 /sec)
propagations          : 5912           (2300389 /sec)
conflict literals     : 1757           (18.92 % deleted)
Memory used           : 13.00 MB
CPU time              : 0.00257 s

SATISFIABLE
